; Bottom-up merge sort
(declare-datatypes (a)
  ((list (nil) (cons (head a) (tail (list a))))))
(define-funs-rec
  ((par (t t2) (map2 ((f (=> t2 t)) (x (list t2))) (list t))))
  ((match x
     (case nil (as nil (list t)))
     (case (cons y z) (cons (@ f y) (map2 f z))))))
(define-funs-rec
  ((lmerge ((x (list Int)) (y (list Int))) (list Int)))
  ((match x
     (case nil y)
     (case (cons z x2)
       (match y
         (case nil x)
         (case (cons x3 x4)
           (ite
             (<= z x3) (cons z (lmerge x2 y)) (cons x3 (lmerge x x4)))))))))
(define-funs-rec
  ((pairwise ((x (list (list Int)))) (list (list Int))))
  ((match x
     (case nil x)
     (case (cons xs y)
       (match y
         (case nil x)
         (case (cons ys xss) (cons (lmerge xs ys) (pairwise xss))))))))
(define-funs-rec
  ((mergingbu ((x (list (list Int)))) (list Int)))
  ((match x
     (case nil (as nil (list Int)))
     (case (cons xs y)
       (match y
         (case nil xs)
         (case (cons z x2) (mergingbu (pairwise x))))))))
(define-funs-rec
  ((insert2 ((x Int) (y (list Int))) (list Int)))
  ((match y
     (case nil (cons x y))
     (case (cons z xs)
       (ite (<= x z) (cons x y) (cons z (insert2 x xs)))))))
(define-funs-rec
  ((isort ((x (list Int))) (list Int)))
  ((match x
     (case nil x)
     (case (cons y xs) (insert2 y (isort xs))))))
(define-funs-rec
  ((par (b c a) (dot ((x (=> b c)) (y (=> a b)) (z a)) c)))
  ((@ x (@ y z))))
(define-funs-rec
  ((msortbu ((x (list Int))) (list Int)))
  ((dot (lambda ((y (list (list Int)))) (mergingbu y))
     (lambda ((z (list Int)))
       (map2 (lambda ((x2 Int)) (cons x2 (as nil (list Int)))) z))
     x)))
(assert-not (forall ((x (list Int))) (= (msortbu x) (isort x))))
(check-sat)
